JulietBench/Juliet_Based_Patch_Bench/FFmpeg/CWE-189-Numeric-Errors/CVE_2013_0862_f4fb841ad13bab66d4fb0c7ff2a94770df7815d8/Resultprocess_frame_obj_Snippet_patch1NEQ.smt2
; benchmark generated from python API
(set-info :status unknown)
(declare-fun rdi () (_ BitVec 64))
(declare-fun rsi () (_ BitVec 64))
(declare-fun R () (_ BitVec 32))
(assert
 (let ((?x6 ((_ extract 31 0) rdi)))
 (let (($x12 (bvsle (_ bv16 32) ?x6)))
 (let ((?x14 (ite $x12 ?x6 (_ bv16 32))))
 (let ((?x8 ((_ extract 31 0) rsi)))
 (let (($x17 (bvsle (_ bv13 32) ?x8)))
 (let ((?x19 (ite $x17 ?x8 (_ bv13 32))))
 (let ((?x24 (bvadd ?x19 ?x14)))
 (let (($x71 (= R ?x24)))
 (let (($x35 (bvsge (_ bv16 32) ?x6)))
 (let ((?x36 (ite $x35 (_ bv16 32) ?x6)))
 (let (($x63 (bvslt (_ bv0 32) ?x36)))
 (let (($x27 (bvsge (_ bv13 32) ?x8)))
 (let ((?x28 (ite $x27 (_ bv13 32) ?x8)))
 (let (($x69 (bvslt (_ bv0 32) ?x28)))
 (let ((?x74 (bvsub ?x28 (_ bv4294967168 32))))
 (let ((?x75 ((_ zero_extend 32) ?x74)))
 (let ((?x68 (bvsub ?x36 (_ bv4294967168 32))))
 (let ((?x73 ((_ zero_extend 32) ?x68)))
 (let ((?x76 (bvmul ?x73 ?x75)))
 (let (($x80 (bvule ?x76 (_ bv268435454 64))))
 (let (($x120 (and $x80 $x69 $x63 $x71)))
 (let (($x65 (= (_ bv3199971767 32) R)))
 (let (($x117 (bvugt ?x76 (_ bv268435454 64))))
 (let (($x66 (and $x117 $x69 $x63 $x65)))
 (let (($x122 (or $x66 $x120)))
 (let (($x121 (not $x122)))
 (let (($x119 (and (distinct R ?x24) true)))
 (let (($x114 (and $x119 $x121)))
 (let (($x118 (and $x71 $x122)))
 (let (($x115 (or $x118 $x114)))
 (not $x115))))))))))))))))))))))))))))))))
(check-sat)
